n=10;
m=45;
E=[|9,7
|3,9
|8,3
|2,6
|5,6
|8,4
|7,5
|4,8
|7,2
|4,6
|9,5
|7,4
|10,3
|1,5
|3,5
|2,8
|9,3
|10,9
|8,2
|7,9
|6,10
|10,4
|1,3
|9,3
|10,7
|6,7
|7,4
|9,3
|2,5
|9,2
|7,10
|6,2
|3,5
|8,7
|5,6
|9,4
|1,6
|8,6
|1,9
|7,6
|2,8
|5,4
|7,2
|5,1
|9,6
|];

